2830.1
194 0 1 2 3 4 5 187 186 185 184 183 182 181 180 179 178 165 166 167 168 169 170 171 172 173 174 161 160 159 158 145 144 143 142 141 140 139 126 127 128 129 130 131 132 133 120 121 122 135 134 146 147 148 157 156 155 154 153 152 151 138 137 136 149 150 163 164 162 175 176 177 190 191 192 193 10 11 12 25 24 23 22 21 8 9 7 6 188 189 20 19 32 33 34 35 36 37 38 39 40 41 54 55 56 57 44 43 42 28 27 26 13 14 15 16 17 18 31 30 29 53 52 51 50 49 48 47 46 45 58 59 60 61 62 63 76 77 78 91 92 93 94 95 96 83 82 81 80 79 65 66 67 68 69 70 64 75 74 73 72 71 84 85 86 87 88 89 90 124 125 112 111 110 97 98 99 100 101 102 103 104 105 106 107 108 109 119 118 117 116 115 114 113 123 
